\ENCODING=ISO-8859-1
\Problem name: instances

Maximize
 obj:
Subject To
 c1: 228 x1 + 98 x2 + 535 x3 + 609 x4 + 257 x5 + 158 x6 + 3 x7 + 201 x8 + 18 x9
     + 191 x10 + 80 x11 + 829 x12 + 247 x13 + 709 x14 + 191 x15 + 988 x16
     + 563 x17 + 431 x18 + 429 x19 + 11 x20 + 69 x21 + 671 x22 + 859 x23
     + 346 x24 + 105 x25 + 988 x26 + 368 x27 + 219 x28 + 161 x29 + 65 x30
     <= 5313
Bounds
 0 <= x1 <= 1
 0 <= x2 <= 1
 0 <= x3 <= 1
 0 <= x4 <= 1
 0 <= x5 <= 1
 0 <= x6 <= 1
 0 <= x7 <= 1
 0 <= x8 <= 1
 0 <= x9 <= 1
 0 <= x10 <= 1
 0 <= x11 <= 1
 0 <= x12 <= 1
 0 <= x13 <= 1
 0 <= x14 <= 1
 0 <= x15 <= 1
 0 <= x16 <= 1
 0 <= x17 <= 1
 0 <= x18 <= 1
 0 <= x19 <= 1
 0 <= x20 <= 1
 0 <= x21 <= 1
 0 <= x22 <= 1
 0 <= x23 <= 1
 0 <= x24 <= 1
 0 <= x25 <= 1
 0 <= x26 <= 1
 0 <= x27 <= 1
 0 <= x28 <= 1
 0 <= x29 <= 1
 0 <= x30 <= 1
Binaries
 x1  x2  x3  x4  x5  x6  x7  x8  x9  x10  x11  x12  x13  x14  x15  x16  x17 
 x18  x19  x20  x21  x22  x23  x24  x25  x26  x27  x28  x29  x30 
End
